#=======================================================
# FHI-aims file: /u/zklou/projects/salted/2406ppr/hBN/inter_3x3/qmdata/data/geoms/1.in
# Created using the Atomic Simulation Environment (ASE)
# Tue Jun  4 23:52:37 2024
#=======================================================
lattice_vector 7.5372846899999999 0.0000000000000000 0.0000000000000000 
lattice_vector 3.7686423450000004 6.5274800170955167 0.0000000000000000 
lattice_vector 0.0000000000000000 0.0000000000000000 100.0000000000000000 
atom 0.3705579100000000 0.2473704800000000 48.2992996700000035 B
atom 1.6095772500000001 0.9547218400000000 48.2581168600000012 N
atom 1.6159057299999999 2.4081635399999999 48.2079331799999977 B
atom 2.9119653599999999 3.0698829299999999 48.2878556100000011 N
atom 2.8956586999999998 4.5615302000000000 48.2440882300000027 B
atom 4.1293460199999998 5.3039025700000000 48.2638369599999990 N
atom 2.8881104600000000 0.1938985500000000 48.2440506299999967 B
atom 4.1430932000000000 0.9232970900000000 48.2499874299999973 N
atom 4.2173979299999997 2.3711632800000002 48.1983814100000032 B
atom 5.4071077100000000 3.1416821000000001 48.2551150000000035 N
atom 5.3806743399999997 4.6351060500000001 48.2007835599999979 B
atom 6.6326673800000000 5.2504015500000003 48.2267967900000016 N
atom 5.4053081499999998 0.2630631700000000 48.1892927499999999 B
atom 6.6474325199999997 0.9384750900000000 48.2015045899999990 N
atom 6.7330167999999997 2.4143313599999998 48.2139293400000000 B
atom 7.9266260099999997 3.1155188400000000 48.3035762299999973 N
atom 7.9555633900000000 4.6581204200000004 48.2273027999999968 B
atom 9.2253522599999993 5.2615803799999998 48.1788165999999975 N
atom 9.0841544899999995 6.1785188700000004 51.7716219499999966 B
atom 7.8503793200000000 5.5146850199999999 51.7872999300000032 N
atom 7.8845949199999996 4.0607983200000000 51.8183023699999978 B
atom 6.6370712100000002 3.3247108900000000 51.7904180499999995 N
atom 6.5279048399999997 1.7851897999999999 51.7710008900000034 B
atom 5.2782362300000001 1.0908498900000001 51.7545641700000019 N
atom 6.5798080399999996 6.1874281399999997 51.7757480400000034 B
atom 5.2995848700000003 5.4055075700000002 51.7938697100000027 N
atom 5.2309886600000004 4.0013091999999997 51.7245426499999965 B
atom 4.0491092499999999 3.2814368300000001 51.7599493399999986 N
atom 4.0732056500000002 1.8159916100000000 51.6999269599999991 B
atom 2.8597846800000002 1.0895018200000000 51.7321038500000014 N
atom 4.0728182700000000 6.1598865399999996 51.7378686699999975 B
atom 10.3689510600000006 5.4887526299999996 51.7627912600000002 N
atom 2.8448302999999999 3.9396424600000000 51.7615744599999985 B
atom 9.1223504399999999 3.3483034500000000 51.8317346700000030 N
atom 1.5809172600000001 1.8176776600000000 51.7600815899999986 B
atom 7.8838898400000001 1.1555849400000000 51.7159338199999965 N
