#===============================================================================
# Created using the Atomic Simulation Environment (ASE)

# Wed Jul 23 17:29:36 2025

#=======================================================
lattice_vector 10.9181512971938517 0.0000000000000000 0.0000000000000000 
lattice_vector 5.4584066595824998 9.4559999675671254 0.0000000000000000 
lattice_vector 0.0000000000000000 0.0000000000000000 100.0000000000000000 
atom 0.5376311000000000 0.3539284800000000 47.0494302999999974 Zr
atom 2.3068196400000001 1.3955346799999999 45.5735351300000033 S
atom 4.1472772899999999 2.4487794400000000 48.3859917899999985 S
atom 2.3988965699999998 3.3949004800000000 47.0466539600000004 Zr
atom 4.1989532100000000 4.5009722500000002 45.5313397500000008 S
atom 5.9640817899999998 5.5918707699999999 48.5218283700000015 S
atom 4.1832361100000002 6.5883563599999997 46.9775459999999967 Zr
atom 5.9984405399999998 7.6210267099999998 45.5532255299999989 S
atom 7.9816868699999999 8.6715736499999991 48.3650281800000030 S
atom 4.1932102499999999 0.3492384600000000 46.9981635600000018 Zr
atom 5.9587047300000000 1.5104517399999999 45.4362974599999987 S
atom 7.7612451299999998 2.3062100499999998 48.4292915300000004 S
atom 6.0093565099999999 3.5263461700000001 46.9063007499999998 Zr
atom 7.7981470100000001 4.5069456700000003 45.4321016199999974 S
atom 9.8086043499999995 5.6143161499999996 48.3991517700000031 S
atom 7.8426487500000004 6.6144894200000000 47.0699369499999989 Zr
atom 9.7347274499999994 7.8649621700000001 45.4945001700000020 S
atom 11.6006867899999992 8.6381379099999993 48.3094233799999984 S
atom 7.7912263399999997 0.3136533700000000 46.9570557600000029 Zr
atom 9.6362064400000005 1.5164432000000001 45.5382176500000000 S
atom 11.5317736499999999 2.5413642699999999 48.5331474799999967 S
atom 9.7028324700000006 3.5354737400000000 46.9862904100000023 Zr
atom 11.3112699299999999 4.4238561499999998 45.4953304799999998 S
atom 13.1259451600000006 5.5386260099999998 48.3904372300000034 S
atom 11.4406792900000003 6.6292451699999999 46.9624242000000010 Zr
atom 13.1792944799999994 7.5476869200000003 45.5546308300000007 S
atom 14.8608630700000006 8.7148014099999997 48.3273697500000026 S
atom 3.1278905400000001 0.5079500400000000 53.0506977599999985 Zr
atom 4.9748969900000004 1.5280251899999999 51.4488750000000010 S
atom 6.8976527000000001 2.5718253799999999 54.4438579300000001 S
atom 4.9846823699999998 3.6299781300000000 53.0226724600000026 Zr
atom 6.8274195700000000 4.7922239400000004 51.5865209899999968 S
atom 8.6749191000000003 5.6160264900000003 54.5181777299999979 S
atom 6.8384884000000001 6.9109826500000002 53.1570152399999998 Zr
atom 8.6580363699999996 7.8357256000000000 51.5808984600000002 S
atom 10.5347135200000004 9.0409197399999996 54.4034605900000017 S
atom 6.8304089699999997 0.4876554600000000 52.9328396000000012 Zr
atom 8.4593667799999999 1.5319585000000000 51.5778263099999990 S
atom 10.4607002399999995 2.4126934400000000 54.5279964300000017 S
atom 8.6288358899999995 3.6530204700000000 53.0489796800000022 Zr
atom 10.4133384499999995 4.6584654199999997 51.5633407799999972 S
atom 12.1677877999999993 5.6269210200000002 54.5283171999999965 S
atom 10.5013492700000004 6.7960182700000002 53.0421205900000032 Zr
atom 12.2139510599999994 7.7901008799999998 51.5507390400000034 S
atom 14.1111623099999992 8.7947679900000004 54.5509070600000001 S
atom 10.4022886099999994 0.4468635000000000 52.9863443099999998 Zr
atom 1.4530913599999999 1.5084087399999999 51.5085115099999982 S
atom 3.1910743799999999 2.7617266100000002 54.4477118100000013 S
atom 12.2626822200000003 3.6192260599999999 53.0746917199999970 Zr
atom 3.0313850300000000 4.7670271000000000 51.5520655700000034 S
atom 5.0407843600000000 5.8653467800000003 54.4699896600000031 S
atom 14.0546541999999999 6.7431133200000000 53.1332151200000027 Zr
atom 4.9987187000000004 7.7888013599999999 51.5484259899999984 S
atom 6.7680782500000003 8.7916399999999992 54.5191514500000025 S
