#===============================================================================
# Created using the Atomic Simulation Environment (ASE)

# Wed Jun 26 17:56:42 2024

#=======================================================
lattice_vector 10.2236844471158008 0.0000000000000000 0.0000000000000000 
lattice_vector 5.1118422235579022 8.8539704514781459 0.0000000000000000 
lattice_vector 0.0000000000000000 0.0000000000000000 100.0000000000000000 
atom 0.4997893400000000 0.3485970200000000 47.1963984799999992 Ti
atom 2.1563564199999998 1.3085092800000000 45.7472284799999969 S
atom 3.8813070000000001 2.2950151499999998 48.4288466000000000 S
atom 2.2614369499999998 3.1466463500000001 47.1925657399999992 Ti
atom 3.9329685099999998 4.2132703400000002 45.7050330900000006 S
atom 5.5825900300000004 5.2374299799999999 48.5646831899999967 S
atom 3.9168882800000002 6.1551996999999998 47.0971621899999988 Ti
atom 5.6169343600000001 7.1326482999999996 45.7269188799999995 S
atom 7.4846736299999996 8.1164563500000000 48.4078829999999982 S
atom 3.9300418900000000 0.3421224500000000 47.1256247299999984 Ti
atom 5.5767525600000001 1.4234263400000000 45.6099908099999993 S
atom 7.2637859000000002 2.1524457600000000 48.4721463400000019 S
atom 5.6294024100000000 3.3281071500000001 46.9988081199999996 Ti
atom 7.3006733600000002 4.2192437700000003 45.6057949699999980 S
atom 9.1956236400000009 5.2598753599999997 48.4420065899999983 S
atom 7.3524329599999998 6.1912763899999996 47.2247079099999993 Ti
atom 9.1217323199999996 7.3765837599999999 45.6681935200000026 S
atom 10.8721846000000006 8.0830206100000002 48.3522782000000007 S
atom 7.2808286300000002 0.2929972300000000 47.0688754199999977 Ti
atom 9.0227653199999995 1.4294178000000000 45.7119110000000006 S
atom 10.8028254599999993 2.3875999800000001 48.5760022999999990 S
atom 9.1119714999999992 3.3407077599999999 47.1092338500000025 Ti
atom 10.5823073200000000 4.1361542399999998 45.6690238199999996 S
atom 12.2814755000000009 5.1841852199999998 48.4332920499999986 S
atom 10.7032396399999996 6.2116467100000001 47.0762865499999990 Ti
atom 12.3348104000000003 7.0593085100000001 45.7283241700000005 S
atom 13.9008719299999992 8.1596841100000006 48.3702245699999978 S
atom 2.9053613800000000 0.4774685500000000 52.9348873799999993 Ti
atom 4.6568323800000000 1.4289943899999999 51.4009848199999979 S
atom 6.4640810300000000 2.4060556900000001 54.2651292299999994 S
atom 4.6608331099999996 3.3874158400000001 52.8961984399999992 Ti
atom 6.3938334699999997 4.4925166399999998 51.5386308100000008 S
atom 8.1258259499999994 5.2495802899999999 54.3394490200000035 S
atom 6.4121829500000000 6.5168300800000001 53.0816586700000030 Ti
atom 8.1089287999999993 7.3353417900000002 51.5330082799999971 S
atom 9.8700988899999995 8.4737970399999991 54.2247318800000002 S
atom 6.4004136000000003 0.4494518800000000 52.7721841700000027 Ti
atom 7.9098132200000002 1.4329277000000000 51.5299361300000029 S
atom 9.7956396199999993 2.2469237600000000 54.3492677200000003 S
atom 8.0753125699999995 3.4192257800000001 52.9325155699999996 Ti
atom 9.7482634099999999 4.3587581200000001 51.5154506100000020 S
atom 11.3872057000000009 5.2604748299999997 54.3495884900000021 S
atom 9.8524879199999997 6.3581217499999996 52.9230465999999993 Ti
atom 11.4333545399999998 7.2897170800000000 51.5028488600000003 S
atom 13.2150587300000009 8.2276452899999999 54.3721783499999987 S
atom 9.7151189599999999 0.3931385800000000 52.8460474199999979 Ti
atom 1.3665157000000001 1.4093779399999999 51.4606213400000030 S
atom 2.9889916599999999 2.5959569299999998 54.2689830999999998 S
atom 11.4755629599999995 3.3725725999999998 52.9680110400000004 Ti
atom 2.8292878899999998 4.4673197900000003 51.5041753900000003 S
atom 4.7231801600000001 5.4989005899999999 54.2912609600000025 S
atom 13.1415508800000005 6.2850864499999997 53.0488026100000027 Ti
atom 4.6811000800000002 7.2884175600000001 51.5005358100000024 S
atom 6.3349525699999996 8.2245173099999995 54.3404227400000011 S
