#=======================================================
# FHI-aims file: /u/zklou/projects/salted/2406ppr/graphene/inter_3x3/qmdata/data/geoms/1.in
# Created using the Atomic Simulation Environment (ASE)
# Tue Jun  4 18:30:39 2024
#=======================================================
lattice_vector 7.3784999999999989 0.0000000000000000 0.0000000000000000 
lattice_vector 3.6892499999999995 6.3899699999999999 0.0000000000000000 
lattice_vector 0.0000000000000000 0.0000000000000000 100.0000000000000000 
atom 0.3633529600000000 0.2391429400000000 48.2802205899999990 C
atom 1.5751536700000000 0.9348423100000000 48.2486138299999965 C
atom 1.5835589400000001 2.3559287100000001 48.1999720999999965 C
atom 2.8510680499999999 3.0041793499999998 48.2783463999999967 C
atom 2.8339834499999998 4.4661917600000001 48.2317275999999993 C
atom 4.0419926799999999 5.1923501999999999 48.2543327400000024 C
atom 2.8273537300000000 0.1921778000000000 48.2316945700000019 C
atom 4.0557369999999997 0.9034241000000000 48.2404860999999983 C
atom 4.1212850899999998 2.3234308600000002 48.1915826500000009 C
atom 5.2932857799999997 3.0759635699999999 48.2456126000000012 C
atom 5.2694065900000000 4.5308144700000001 48.1936924899999966 C
atom 6.4923877100000000 5.1388603200000000 48.2173002899999972 C
atom 5.2910428100000004 0.2529260600000000 48.1835999500000014 C
atom 6.5071497699999998 0.9185989400000000 48.1920133500000034 C
atom 6.5835874700000003 2.3613459899999998 48.2052386200000029 C
atom 7.7598743700000004 3.0498057599999999 48.2940637499999994 C
atom 7.7837668100000004 4.5510283200000003 48.2169847199999992 C
atom 9.0321276499999996 5.1500368200000004 48.1693300800000017 C
atom 2.1272159899999998 0.3393807900000000 51.7800822600000004 C
atom 3.3762668300000001 1.1106547200000001 51.7966998500000031 C
atom 3.4067264800000001 2.5204062199999999 51.8210823200000021 C
atom 4.6489139000000002 3.2265001999999998 51.7998173200000025 C
atom 4.5482270199999997 4.5627564100000004 51.7795367700000000 C
atom 5.7760644000000001 5.2984679600000000 51.7639708999999968 C
atom 4.5938143299999998 0.3472059300000000 51.7837062600000024 C
atom 5.7974085899999999 1.0014999899999999 51.8032682600000030 C
atom 5.7422278200000001 2.4681560899999999 51.7387318399999998 C
atom 7.0328958899999998 3.1832351600000002 51.7693549600000011 C
atom 7.0584312499999999 4.5898100800000003 51.7171115299999968 C
atom 8.3295215099999993 5.2971201700000003 51.7415152599999999 C
atom 7.0580910100000001 0.3230157500000000 51.7504362700000016 C
atom 0.9229090599999999 1.0847277300000000 51.7721962800000028 C
atom 8.3126324399999998 2.4139933199999999 51.7712574099999969 C
atom 2.1622705400000002 3.2500878499999999 51.8411253399999978 C
atom 9.5356203599999994 4.5912909600000003 51.7699461899999989 C
atom 3.4097703699999999 5.3631895299999996 51.7253485900000030 C
