#===============================================================================
# Created using the Atomic Simulation Environment (ASE)

# Fri Aug 15 14:58:08 2025

#=======================================================
lattice_vector 9.4591334818526569 0.0000000000000000 0.0000000000000000 
lattice_vector 4.7291449957995448 8.1919424597316954 0.0000000000000000 
lattice_vector 0.0000000000000000 0.0000000000000000 100.0000000000000000 
atom 0.4648942900000000 0.3108274100000000 46.8876351500000013 Mo
atom 1.9905794900000000 1.2129008800000001 45.3128397600000028 S
atom 2.0115875700000001 1.2156174700000000 48.3288412899999997 S
atom 2.0820302100000001 2.9332157599999999 46.8849280499999992 Mo
atom 3.6396258399999999 3.8969859400000000 45.2706443699999994 S
atom 3.5853048500000000 3.9373562999999998 48.4646778800000035 S
atom 3.6241585900000000 5.7042852999999996 46.8175435300000018 Mo
atom 5.1960259400000002 6.5956878999999997 45.2925301599999983 S
atom 5.3598226999999996 6.5957066800000002 48.3078776899999980 S
atom 3.6337302899999999 0.3062543500000000 46.8376469099999966 Mo
atom 5.1561253100000002 1.3278179400000001 45.1756020899999982 S
atom 5.1392161400000003 1.0730480800000000 48.3721410300000016 S
atom 5.2068721900000003 3.0613834099999999 46.7480750200000017 Mo
atom 6.7524803699999998 3.9029593700000000 45.1714062499999969 S
atom 6.9434881400000004 3.9598016800000000 48.3420012799999981 S
atom 6.7967324800000002 5.7297666400000002 46.9076304000000022 Mo
atom 8.4459735800000004 6.8396233700000000 45.2338048000000015 S
atom 8.4924833599999996 6.5622709400000003 48.2522728900000004 S
atom 6.7464387500000003 0.2715566900000000 46.7975642800000031 Mo
atom 8.3472877499999996 1.3338094000000000 45.2775222799999995 S
atom 8.4234053800000002 1.3082023000000000 48.4759969899999987 S
atom 8.4126598999999995 3.0702833500000000 46.8260698699999978 Mo
atom 9.7792640100000003 3.8198698499999999 45.2346350999999984 S
atom 9.7744896800000003 3.8841115400000001 48.3332867399999984 S
atom 9.9094550199999993 5.7441544000000002 46.8027988400000012 Mo
atom 11.4042013499999992 6.5223481200000002 45.2939354499999993 S
atom 11.2663203700000008 6.6389344299999999 48.2702192599999975 S
atom 2.7041337200000002 0.4405032200000000 53.2100025800000012 Mo
atom 4.3065169900000004 1.3201841299999999 51.5065796199999966 S
atom 4.4098231300000004 1.3134561499999999 54.7051074399999990 S
atom 4.3169075499999998 3.1419262600000000 53.1826761800000014 Mo
atom 5.9159523399999996 4.1630303800000004 51.6442256200000003 S
atom 5.9440023000000002 3.9363047600000001 54.7794272300000031 S
atom 5.9267700500000000 5.9983611100000003 53.3136686699999984 Mo
atom 7.5034819199999996 6.7851795399999997 51.6386030899999966 S
atom 7.5607095099999997 6.9398455099999996 54.6647101000000006 S
atom 5.9187383999999996 0.4207147500000000 53.0950836000000024 Mo
atom 7.3046475099999997 1.3241174400000000 51.6355309400000024 S
atom 7.4865313999999996 1.1543242199999999 54.7892459400000007 S
atom 7.4746028500000001 3.1643939600000000 53.2083273399999968 Mo
atom 9.0155319499999997 4.0292718699999996 51.6210454100000007 S
atom 8.9505317299999998 3.9471992899999999 54.7895667100000026 S
atom 9.1027061699999994 5.8862637600000003 53.2016393099999974 Mo
atom 10.5730573499999991 6.7395548200000004 51.6084436699999998 S
atom 10.6508190200000001 6.6936937600000004 54.8121565599999983 S
atom 9.0059622099999999 0.3809400800000000 53.1472539900000029 Mo
atom 1.2710506300000000 1.3005676900000001 51.5662161400000016 S
atom 1.1895840799999999 1.5033573899999999 54.7089613099999994 S
atom 10.6222480000000008 3.1314423300000001 53.2333981700000010 Mo
atom 2.6062570799999998 4.1378335399999999 51.6097701999999998 S
atom 2.7962068400000000 4.1856250499999996 54.7312391700000020 S
atom 12.1718184899999997 5.8346781700000001 53.2904620899999983 Mo
atom 4.3305035299999997 6.7382552999999996 51.6061306200000018 S
atom 4.2804135099999998 6.6905657700000001 54.7804009500000006 S
